NPROCS=0
This instance is clustered!
Gurobi Optimizer version 9.0.0 build v9.0.0rc2 (linux64)
Optimize a model with 16 rows, 65 columns and 128 nonzeros
Model fingerprint: 0xc6c6ddc8
Variable types: 1 continuous, 64 integer (64 binary)
Coefficient statistics:
  Matrix range     [1e+00, 1e+00]
  Objective range  [1e+00, 3e+01]
  Bounds range     [1e+00, 1e+00]
  RHS range        [1e+00, 1e+00]
Presolve removed 2 rows and 21 columns
Presolve time: 0.00s
Presolved: 14 rows, 44 columns, 86 nonzeros
Variable types: 1 continuous, 43 integer (43 binary)

Root relaxation: objective 5.452871e+01, 12 iterations, 0.00 seconds

    Nodes    |    Current Node    |     Objective Bounds      |     Work
 Expl Unexpl |  Obj  Depth IntInf | Incumbent    BestBd   Gap | It/Node Time

     0     0   56.56449    0   13          -   56.56449      -     -    0s
H    0     0                     105.7516412   56.56449  46.5%     -    0s
H    0     0                      84.3496609   56.56449  32.9%     -    0s
H    0     0                      74.3531396   56.56449  23.9%     -    0s
     0     0   57.71175    0   12   74.35314   57.71175  22.4%     -    0s
     0     0   57.71175    0   12   74.35314   57.71175  22.4%     -    0s
     0     2   57.71175    0   12   74.35314   57.71175  22.4%     -    0s

Cutting planes:
  Gomory: 1
  Lazy constraints: 25

Explored 37 nodes (132 simplex iterations) in 0.03 seconds
Thread count was 12 (of 12 available processors)

Solution count 3: 74.3531 84.3497 105.752 

Optimal solution found (tolerance 1.00e-04)
Best objective 7.435313956779e+01, best bound 7.435313956779e+01, gap 0.0000%

User-callback calls 172, time in user-callback 0.00 sec
/projects/academic/josewalt/caigao/RRARP_BD/BendersDecomp/ret/model_outs/n_6_m_4_algo_2.out
 =====>>>>> Solution is written to file in <../ret/model_outs> !!!
===>> All Done!
